341045	50
4912	1906
99732	41516
56554	23527
1818	559
108372	45136
6750	2625
1484	492
3072	1086
13532	5516
12050	4875
18440	7570
10972	4436
1940	620
122094	50897
5558	2129
10630	4265
2112	706
6942	2721
39888	16494
71276	29688
8466	3383
5662	2181
231302	96601
4690	1795
18324	7512
3384	1242
7278	2889
5566	2133
706	103
10992	4446
27552	11326
7548	3024
934	217
32038	13269
1062	281
184848	77174
2604	952
37644	15572
1832	566
10306	4103
1126	313
34886	14393
3526	1313
1196	348
1338	419
992	246
1390	445
56804	23552
56804	23552
634	67
